(set-logic QF_BV)
(set-info :smt-lib-version 2.0)
(set-info :category "crafted")
(set-info :status sat)
(declare-fun x_0 () (_ BitVec 16))
(declare-fun x_1 () (_ BitVec 16))
(declare-fun x_2 () (_ BitVec 16))
(declare-fun x_3 () (_ BitVec 16))
(assert (bvsle x_0 (_ bv127 16)))
(assert (bvsle x_1 (_ bv127 16)))
(assert (bvsle x_2 (_ bv127 16)))
(assert (bvsle x_3 (_ bv127 16)))
(assert (bvsge x_0 (_ bv0 16)))
(assert (bvsge x_1 (_ bv0 16)))
(assert (bvsge x_2 (_ bv0 16)))
(assert (bvsge x_3 (_ bv0 16)))
(assert (bvsle (bvadd (bvmul (bvneg (_ bv16 16)) x_0) (bvmul (_ bv2 16) x_1) (bvmul (_ bv2 16) x_2) (bvmul (_ bv2 16) x_3)) (_ bv0 16)))
(assert (bvsle (bvadd (bvmul (_ bv3 16) x_0) (bvmul (bvneg (_ bv15 16)) x_1) (bvmul (_ bv3 16) x_2) (bvmul (_ bv3 16) x_3)) (_ bv0 16)))
(assert (bvsle (bvadd (bvmul (_ bv5 16) x_0) (bvmul (_ bv5 16) x_1) (bvmul (bvneg (_ bv13 16)) x_2) (bvmul (_ bv5 16) x_3)) (_ bv0 16)))
(assert (bvsle (bvadd (bvmul (_ bv7 16) x_0) (bvmul (_ bv7 16) x_1) (bvmul (_ bv7 16) x_2) (bvmul (bvneg (_ bv11 16)) x_3)) (_ bv0 16)))
(assert (bvsge (bvadd x_0 x_1 x_2 x_3) (_ bv1 16)))
(check-sat)
(exit)
